NAME          ClpDefau  FREE
ROWS
 N  OBJROW
 L  ZMUNI1_PCT
 L  ZMUNI2_PCT
 L  ZMUNI3_PCT
 L  ZMUNI4_PCT
 L  ZMUNI5_PCT
 L  ZMUNI6_PCT
 L  ZMUNI7_PCT
 L  ZMUNI8_PCT
 L  ZMUNI9_PCT
COLUMNS
    QMUNI1 OBJROW 1.          
    QMUNI1 ZMUNI1_PCT 28469.4671  
    QMUNI1 ZMUNI2_PCT 1664.3524   
    QMUNI1 ZMUNI3_PCT 4133.0337   
    QMUNI1 ZMUNI4_PCT 2996.7308   
    QMUNI1 ZMUNI5_PCT 25.5584     
    QMUNI1 ZMUNI6_PCT 218.5822    
    QMUNI1 ZMUNI7_PCT 1642.9901   
    QMUNI1 ZMUNI8_PCT 1256.752    
    QMUNI1 ZMUNI9_PCT 332.8323    
    QMUNI2 OBJROW 1.          
    QMUNI2 ZMUNI1_PCT 1740.6463   
    QMUNI2 ZMUNI2_PCT 33809.0896  
    QMUNI2 ZMUNI3_PCT 2526.6647   
    QMUNI2 ZMUNI4_PCT 2670.28808  
    QMUNI2 ZMUNI5_PCT 266.6473    
    QMUNI2 ZMUNI6_PCT 310.7071    
    QMUNI2 ZMUNI7_PCT 1061.4395   
    QMUNI2 ZMUNI8_PCT 1224.8992   
    QMUNI2 ZMUNI9_PCT 1012.4207   
    QMUNI3 OBJROW 1.          
    QMUNI3 ZMUNI1_PCT 4078.4836   
    QMUNI3 ZMUNI2_PCT 2549.3622   
    QMUNI3 ZMUNI3_PCT 30047.0352  
    QMUNI3 ZMUNI4_PCT 4986.763    
    QMUNI3 ZMUNI5_PCT  -135.994   
    QMUNI3 ZMUNI6_PCT 29.3732     
    QMUNI3 ZMUNI7_PCT 1486.5875   
    QMUNI3 ZMUNI8_PCT 1417.3507   
    QMUNI3 ZMUNI9_PCT 682.4493    
    QMUNI4 OBJROW 1.          
    QMUNI4 ZMUNI1_PCT 3143.1198   
    QMUNI4 ZMUNI2_PCT 2837.1811   
    QMUNI4 ZMUNI3_PCT 5315.3991   
    QMUNI4 ZMUNI4_PCT 105211.01951
    QMUNI4 ZMUNI5_PCT 116.9204    
    QMUNI4 ZMUNI6_PCT 181.9611    
    QMUNI4 ZMUNI7_PCT 1132.0114   
    QMUNI4 ZMUNI8_PCT 1069.0689   
    QMUNI4 ZMUNI9_PCT 457.0007    
    QMUNI5 OBJROW 1.          
    QMUNI5 ZMUNI1_PCT 551.9867    
    QMUNI5 ZMUNI2_PCT 415.039     
    QMUNI5 ZMUNI3_PCT 496.6735    
    QMUNI5 ZMUNI4_PCT 408.36334   
    QMUNI5 ZMUNI5_PCT 34948.5397  
    QMUNI5 ZMUNI6_PCT 3187.5611   
    QMUNI5 ZMUNI7_PCT 1209.259    
    QMUNI5 ZMUNI8_PCT 1097.1069   
    QMUNI5 ZMUNI9_PCT 1049.8047   
    QMUNI6 OBJROW 1.          
    QMUNI6 ZMUNI1_PCT 866.6992    
    QMUNI6 ZMUNI2_PCT 715.2557    
    QMUNI6 ZMUNI3_PCT 793.457     
    QMUNI6 ZMUNI4_PCT 659.75189   
    QMUNI6 ZMUNI5_PCT 3363.4186   
    QMUNI6 ZMUNI6_PCT 32673.8358  
    QMUNI6 ZMUNI7_PCT 1763.5345   
    QMUNI6 ZMUNI8_PCT 1620.6741   
    QMUNI6 ZMUNI9_PCT 1691.4368   
    QMUNI7 OBJROW 1.          
    QMUNI7 ZMUNI1_PCT 1755.5237   
    QMUNI7 ZMUNI2_PCT 1061.058    
    QMUNI7 ZMUNI3_PCT 1558.876    
    QMUNI7 ZMUNI4_PCT 1220.79849  
    QMUNI7 ZMUNI5_PCT 752.0675    
    QMUNI7 ZMUNI6_PCT 927.7344    
    QMUNI7 ZMUNI7_PCT 30518.5318  
    QMUNI7 ZMUNI8_PCT 2865.7913   
    QMUNI7 ZMUNI9_PCT 1148.7961   
    QMUNI8 OBJROW 1.          
    QMUNI8 ZMUNI1_PCT 1107.2159   
    QMUNI8 ZMUNI2_PCT 860.9772    
    QMUNI8 ZMUNI3_PCT 1095.1995   
    QMUNI8 ZMUNI4_PCT 847.05352   
    QMUNI8 ZMUNI5_PCT 387.9547    
    QMUNI8 ZMUNI6_PCT 439.4532    
    QMUNI8 ZMUNI7_PCT 2415.4663   
    QMUNI8 ZMUNI8_PCT 28063.0111  
    QMUNI8 ZMUNI9_PCT 972.7478    
    QMUNI9 OBJROW 1.          
    QMUNI9 ZMUNI1_PCT 1066.7801   
    QMUNI9 ZMUNI2_PCT 1354.9805   
    QMUNI9 ZMUNI3_PCT 1153.5644   
    QMUNI9 ZMUNI4_PCT 997.82943   
    QMUNI9 ZMUNI5_PCT 752.0675    
    QMUNI9 ZMUNI6_PCT 803.7567    
    QMUNI9 ZMUNI7_PCT 1869.0109   
    QMUNI9 ZMUNI8_PCT 2427.4826   
    QMUNI9 ZMUNI9_PCT 27951.0498  
RHS
    RHS ZMUNI1_PCT 0.1608223564
    RHS ZMUNI2_PCT 0.178990255 
    RHS ZMUNI3_PCT 0.1213182972
    RHS ZMUNI4_PCT 0.1358528699
    RHS ZMUNI5_PCT 0.05759237  
    RHS ZMUNI6_PCT 0.1377222305
    RHS ZMUNI7_PCT 0.0143548585
    RHS ZMUNI8_PCT -0.0069127  
    RHS ZMUNI9_PCT -0.068137518
BOUNDS
 LO BOUND QMUNI1 -0.000934031
 UP BOUND QMUNI1      1.1e+10
 LO BOUND QMUNI2 -0.000642789
 UP BOUND QMUNI2      1.1e+10
 LO BOUND QMUNI3 -0.000688366
 UP BOUND QMUNI3      1.1e+10
 LO BOUND QMUNI4 -0.000265985
 UP BOUND QMUNI4      1.1e+10
 LO BOUND QMUNI5 -0.000485382
 UP BOUND QMUNI5      1.1e+10
 LO BOUND QMUNI6 -0.000659951
 UP BOUND QMUNI6      1.1e+10
 LO BOUND QMUNI7 -0.000298495
 UP BOUND QMUNI7      1.1e+10
 LO BOUND QMUNI8 -0.000410468
 UP BOUND QMUNI8      1.1e+10
 LO BOUND QMUNI9 -0.000458338
 UP BOUND QMUNI9      1.1e+10
ENDATA
